h=9;
w=9;
s=3;
b=[|5,1,0,3,0,2,0,6,8|2,0,8,7,1,9,5,0,3|3,4,7,8,6,5,0,2,1|9,7,0,6,3,4,8,0,0|1,2,6,5,7,8,4,3,9|8,3,4,9,2,0,6,0,5|7,8,3,2,0,6,1,0,4|4,0,0,1,5,7,3,8,6|0,5,1,4,8,3,2,9,0|];
t=[|1,1,1,1,0,0,1,0,0|0,0,0,1,1,1,1,0,1|1,0,1,0,0,1,1,0,1|1,1,1,0,1,0,0,1,0|1,0,0,1,1,0,0,1,1|0,1,0,1,0,1,0,1,1|1,0,1,0,1,0,1,1,0|0,1,0,1,1,1,1,0,0|0,1,1,0,0,1,0,1,1|];
